NAME: TEST
TYPE: AGTSP
COMMENT: NA
DIMENSION:  19
GTSP_SETS: 10
EDGE_WEIGHT_TYPE: EXPLICIT
EDGE_WEIGHT_FORMAT: FULL_MATRIX
EDGE_WEIGHT_SECTION
999999 35 35 92 92 149 149 207 207 999999 78 92 999999 149 999999 207 999999 236 35 
999999 999999 86 999999 999999 999999 999999 999999 999999 86 999999 999999 999999 999999 999999 999999 999999 999999 43 
149 114 999999 57 57 115 115 173 173 114 999999 999999 93 115 999999 173 999999 201 57 
999999 999999 999999 999999 72 999999 999999 999999 999999 999999 999999 72 999999 999999 999999 999999 999999 999999 36 
207 173 173 116 999999 58 58 116 116 173 999999 116 999999 999999 88 116 999999 144 58 
999999 999999 999999 999999 999999 999999 60 999999 999999 999999 999999 999999 999999 60 999999 999999 999999 999999 30 
265 230 230 173 173 116 999999 58 58 230 999999 173 999999 116 999999 999999 82 86 58 
999999 999999 999999 999999 999999 999999 999999 999999 48 999999 999999 999999 999999 999999 999999 48 999999 999999 24 
265 230 230 173 173 115 115 57 999999 230 999999 173 999999 115 999999 57 999999 999999 29 
999999 69 69 126 126 184 184 242 242 999999 999999 126 999999 184 999999 242 999999 271 35 
78 999999 43 100 100 158 158 216 216 43 999999 100 999999 158 999999 216 999999 244 43 
92 57 999999 114 114 172 172 229 229 57 100 999999 999999 172 999999 229 999999 258 57 
128 93 93 999999 36 94 94 152 152 93 999999 36 999999 94 999999 152 999999 180 36 
149 115 115 58 999999 116 116 173 173 115 999999 58 94 999999 999999 173 999999 202 58 
179 145 145 88 88 999999 30 88 88 145 999999 88 999999 30 999999 88 999999 116 30 
207 173 173 116 116 58 999999 116 116 173 999999 116 999999 58 88 999999 999999 144 58 
231 197 197 140 140 82 82 999999 24 197 999999 140 999999 82 999999 24 999999 53 24 
236 201 201 144 144 86 86 29 999999 201 999999 144 999999 86 999999 29 53 999999 29 
999999 999999 999999 999999 999999 999999 999999 999999 999999 999999 999999 999999 999999 999999 999999 999999 999999 999999 999999 
GTSP_SET_SECTION:
1 1 10 -1
2 2 11 -1
3 3 12 -1
4 4 13 -1
5 5 14 -1
6 6 15 -1
7 7 16 -1
8 8 17 -1
9 9 18 -1
10 19 -1
EOF